c ren 1 -> 1
c ren 2 -> 2
c ren 3 -> 3
c ren 4 -> 4
c ren 5 -> 5
c ren 6 -> 6
c ren 7 -> 7
c ren 8 -> 8
c ren 9 -> 9
c ren 10 -> 10
c ren 11 -> 11
c ren 12 -> 12
c ren 13 -> 13
c ren 14 -> 14
c ren 15 -> 15
c ren 17 -> 16
c ren 18 -> 17
c ren 19 -> 18
c ren 20 -> 19
c ren 21 -> 20
c ren 22 -> 21
c ren 23 -> 22
c ren 24 -> 23
c ren 25 -> 24
c ren 26 -> 25
c ren 30 -> 26
c ren 35 -> 27
c ren 41 -> 28
c ren 47 -> 29
c ren 57 -> 30
c ren 69 -> 31
p cnf 31 127
a 1 2 3 4 5 6 7 8 9 10 11 12 13 14 15 16 17 18 19 20 21 0
d 22 16 17 0
d 23 18 19 0
d 24 11 12 0
d 25 20 21 0
e 26 27 28 29 30 31 0
-1 -16 -26 0
1 2 -16 26 0
-2 5 -6 -22 31 0
1 2 16 -26 0
-1 5 -6 -22 31 0
1 2 3 4 5 -6 22 31 0
-3 -17 -27 0
3 4 -17 27 0
3 4 17 -27 0
-3 9 10 11 12 13 14 -25 -29 31 0
27 31 0
-2 -6 20 21 -26 -27 -28 -30 -31 0
-13 18 28 0
-1 16 26 0
14 -18 -28 0
-18 22 -28 0
13 -14 18 -22 -28 0
-13 -23 31 0
14 -23 31 0
14 18 28 0
18 22 28 0
28 31 0
1 2 3 4 5 6 -15 -20 -21 -26 -27 -28 -30 -31 0
1 2 -4 -15 -20 21 -26 -27 -28 -30 -31 0
-5 19 30 0
1 2 3 4 5 7 -8 22 31 0
-6 -19 -30 0
-7 -8 29 0
7 8 29 0
-7 8 -29 0
7 -8 -29 0
-6 19 30 0
5 6 -7 9 -10 -22 -29 31 0
-4 15 20 21 -26 -27 -28 -30 -31 0
-9 19 30 0
5 6 -7 9 -22 -24 -29 31 0
-10 -19 -30 0
-11 -23 31 0
-3 5 9 -10 -22 -29 31 0
-10 19 30 0
-12 19 30 0
-3 5 9 11 12 13 14 15 -22 -29 31 0
-10 -23 31 0
1 2 3 4 5 7 9 11 -12 22 31 0
-9 -23 31 0
-12 -23 31 0
-11 -19 -30 0
-9 -19 -30 0
-19 29 -30 0
30 31 0
-2 -5 20 21 -26 -27 -28 -30 -31 0
-2 5 7 -8 -22 31 0
-4 17 27 0
-2 3 4 5 6 20 -21 -26 -27 -28 -30 -31 0
26 31 0
-1 -3 20 21 -26 -27 -28 -30 -31 0
-3 15 20 21 -26 -27 -28 -30 -31 0
-5 15 20 21 -26 -27 -28 -30 -31 0
3 4 5 6 15 20 -21 -26 -27 -28 -30 -31 0
-3 17 27 0
-1 9 10 11 12 13 14 -25 -29 31 0
-1 -5 20 21 -26 -27 -28 -30 -31 0
-1 3 4 5 6 20 -21 -26 -27 -28 -30 -31 0
-2 -23 31 0
1 2 -5 -15 -20 21 -26 -27 -28 -30 -31 0
-2 -3 20 21 -26 -27 -28 -30 -31 0
-6 9 10 11 12 13 14 -25 -29 31 0
9 10 11 12 13 14 15 -25 -29 31 0
-2 9 10 11 12 13 14 -25 -29 31 0
1 2 -3 -15 -20 21 -26 -27 -28 -30 -31 0
-4 9 10 11 12 13 14 -25 -29 31 0
-4 -17 -27 0
-2 -4 20 21 -26 -27 -28 -30 -31 0
-2 5 9 -22 -24 -29 31 0
-2 5 9 -10 -22 -29 31 0
13 -14 -18 -22 28 0
5 6 -8 9 -10 -22 -29 31 0
1 2 3 4 5 6 7 8 9 10 11 -12 24 31 0
-3 5 -6 -22 31 0
-1 5 9 -10 -22 -29 31 0
1 2 3 4 5 6 -8 -9 -29 31 0
-1 5 7 -8 -22 31 0
5 6 9 10 11 12 -19 -29 30 0
-2 5 9 11 12 13 14 15 -22 -29 31 0
-4 5 -6 -22 31 0
-1 5 9 11 12 13 14 15 -22 -29 31 0
-2 16 26 0
-3 5 7 -8 -22 31 0
-6 -23 31 0
1 2 3 4 5 7 9 -10 22 31 0
-1 -23 31 0
-3 -23 31 0
-6 15 20 21 -26 -27 -28 -30 -31 0
-4 5 9 -22 -24 -29 31 0
5 6 9 10 11 12 19 -29 -30 0
5 6 -8 9 11 12 13 14 15 -22 -29 31 0
-4 5 9 -10 -22 -29 31 0
-5 9 10 11 12 13 14 -25 -29 31 0
1 2 3 4 5 6 -8 10 12 -13 -29 31 0
-7 9 10 11 12 13 14 -25 -29 31 0
1 2 3 4 5 6 -8 10 -11 -29 31 0
-1 -6 20 21 -26 -27 -28 -30 -31 0
-8 9 10 11 12 13 14 -25 -29 31 0
-3 5 9 -22 -24 -29 31 0
-7 -23 31 0
-8 -23 31 0
-4 5 9 11 12 13 14 15 -22 -29 31 0
5 6 -7 9 11 12 13 14 15 -22 -29 31 0
-5 -19 -30 0
1 2 3 4 5 6 -7 10 -11 -29 31 0
-4 5 7 -8 -22 31 0
-1 5 9 -22 -24 -29 31 0
19 29 30 0
-2 -16 -26 0
-5 -23 31 0
-11 19 30 0
-1 -4 20 21 -26 -27 -28 -30 -31 0
1 2 3 4 5 6 -7 10 12 -13 -29 31 0
1 2 3 4 5 6 7 8 9 10 11 12 13 -14 23 31 0
-4 -23 31 0
-13 -18 -28 0
-12 -19 -30 0
1 2 -6 -15 -20 21 -26 -27 -28 -30 -31 0
1 2 3 4 5 6 -7 -9 -29 31 0
1 2 3 4 5 6 7 8 9 10 11 12 13 14 -15 25 31 0
5 6 -8 9 -22 -24 -29 31 0
1 2 3 4 5 7 9 11 13 14 15 22 31 0
